StringID     Type         x            y            demand       ReadyTime    DueDate      ServiceTime  PartnerID
D0           d            25.0         25.0         0.0          0.0          950.0        4.0          0
C1           cp           20.0         30.0         35.0         45.0         622.0        14.0         C10
C2           cp           41.0         27.0         35.0         42.0         633.0        15.0         C11
C3           cp           28.0         29.0         45.0         47.0         625.0        16.0         C12
C4           cp           35.0         24.0         50.0         43.0         642.0        13.0         C13
C5           cp           36.0         59.0         45.0         45.0         639.0        17.0         C14
C6           cp           21.0         23.0         50.0         44.0         655.0        15.0         C15
C7           cp           30.0         42.0         55.0         46.0         652.0        14.0         C16
C8           cp           23.0         25.0         55.0         42.0         660.0        16.0         C17
C9           cp           37.0         31.0         40.0         45.0         665.0        16.0         C18
C10          cd           44.0         51.0         -35.0        63.0         863.0        15.0         C1
C11          cd           40.0         34.0         -35.0        68.0         861.0        17.0         C2
C12          cd           41.0         49.0         -45.0        64.0         863.0        15.0         C3
C13          cd           42.0         40.0         -50.0        65.0         862.0        14.0         C4
C14          cd           38.0         22.0         -45.0        64.0         864.0        13.0         C5
C15          cd           14.0         31.0         -50.0        67.0         863.0        17.0         C6
C16          cd           49.0         41.0         -55.0        66.0         867.0        15.0         C7
C17          cd           33.0         17.0         -55.0        63.0         865.0        12.0         C8
C18          cd           26.0         22.0         -40.0        65.0         862.0        16.0         C9

VehicleCount : 1
VehiclePerCapacity:   60
VehicleMaxTrolleyCount: 2
TrolleyImpactRate: 20.0
EarlinessPenalty: 10
TardinessPenalty: 10
